Version identifier: 20.1.0.0 | 2020-11-10 | 9bedb6d68
Tried aggregator 2 times.
MIP Presolve eliminated 906 rows and 461 columns.
MIP Presolve modified 2406 coefficients.
Aggregator did 119 substitutions.
Reduced MIP has 1384 rows, 1085 columns, and 4549 nonzeros.
Reduced MIP has 226 binaries, 859 generals, 0 SOSs, and 0 indicators.
Presolve time = 0.02 sec. (5.44 ticks)
Found incumbent of value 2059.000000 after 0.03 sec. (11.15 ticks)
Probing fixed 30 vars, tightened 346 bounds.
Probing time = 0.00 sec. (0.89 ticks)
Tried aggregator 2 times.
Detecting symmetries...
MIP Presolve eliminated 586 rows and 34 columns.
MIP Presolve modified 111 coefficients.
Aggregator did 4 substitutions.
Reduced MIP has 794 rows, 1047 columns, and 2598 nonzeros.
Reduced MIP has 336 binaries, 711 generals, 0 SOSs, and 0 indicators.
Presolve time = 0.01 sec. (3.62 ticks)
Probing time = 0.00 sec. (0.21 ticks)
Clique table members: 5.
MIP emphasis: balance optimality and feasibility.
MIP search method: dynamic search.
Parallel mode: deterministic, using up to 24 threads.
Root relaxation solution time = 0.01 sec. (1.99 ticks)

        Nodes                                         Cuts/
   Node  Left     Objective  IInf  Best Integer    Best Bound    ItCnt     Gap

*     0+    0                         2059.0000        0.0000           100.00%
*     0+    0                           34.0000        0.0000           100.00%
      0     0        0.0000    38       34.0000        0.0000      250  100.00%
*     0+    0                           16.0000        0.0000           100.00%
      0     0        0.0000    77       16.0000      Cuts: 72      360  100.00%
      0     0        0.0000    33       16.0000      Cuts: 68      587  100.00%
      0     0        0.2432    60       16.0000      Cuts: 84      696   98.48%
      0     0        0.3867   171       16.0000      Cuts: 54      737   97.58%
      0     0        0.6000   178       16.0000      Cuts: 68      807   96.25%
      0     0        0.9439   200       16.0000      Cuts: 40      841   94.10%
      0     0        1.0000   136       16.0000      Cuts: 46      863   93.75%
      0     0        1.0000   135       16.0000      Cuts: 32      902   93.75%
*     0+    0                           11.0000        1.0000            90.91%
      0     0        cutoff             11.0000       11.0000      902    0.00%
Elapsed time = 2.76 sec. (121.77 ticks, tree = 0.01 MB, solutions = 4)

Implied bound cuts applied:  21
Mixed integer rounding cuts applied:  12
Zero-half cuts applied:  43
Lift and project cuts applied:  4
Gomory fractional cuts applied:  12

Root node processing (before b&c):
  Real time             =    2.76 sec. (121.87 ticks)
Parallel b&c, 24 threads:
  Real time             =    0.00 sec. (0.00 ticks)
  Sync time (average)   =    0.00 sec.
  Wait time (average)   =    0.00 sec.
                          ------------
Total (root+branch&cut) =    2.76 sec. (121.87 ticks)

Solution status = Optimal
Solution LB = 11
Solution UB = 11
Runtime = 2.76967 seconds
	Command being timed: "/home/min/git_repos/CS598MEBProject/CNT-ILP/build/cnt -s 2 ./output/k8_n15/simC_c1_k8_n15_u3_s2_del02.input-left.cnp"
	User time (seconds): 45.13
	System time (seconds): 0.07
	Percent of CPU this job got: 1610%
	Elapsed (wall clock) time (h:mm:ss or m:ss): 0:02.80
	Average shared text size (kbytes): 0
	Average unshared data size (kbytes): 0
	Average stack size (kbytes): 0
	Average total size (kbytes): 0
	Maximum resident set size (kbytes): 81468
	Average resident set size (kbytes): 0
	Major (requiring I/O) page faults: 0
	Minor (reclaiming a frame) page faults: 27674
	Voluntary context switches: 5795
	Involuntary context switches: 6082
	Swaps: 0
	File system inputs: 0
	File system outputs: 16
	Socket messages sent: 0
	Socket messages received: 0
	Signals delivered: 0
	Page size (bytes): 4096
	Exit status: 0
